%%%mzn-stat: initTime=0.043132869
%%%mzn-stat: objective=230
%%%mzn-stat: nodes=1342
%%%mzn-stat: restarts=0
%%%mzn-stat: peakDepth=812
%%%mzn-stat: solveTime=0.606239328
%%%mzn-stat: variables=3259
%%%mzn-stat: propagators=2737
%%%mzn-stat: failures=330
%%%mzn-stat: propagations=411086
%%%mzn-stat: nogoods=330
%%%mzn-stat: AverageConflictSize=19.903030303030302
%%%mzn-stat: NumUnitNogoodsLearned=229
%%%mzn-stat: AverageLearnedNogoodLength=61.945454545454545
%%%mzn-stat: AverageBacktrackAmount=0
%%%mzn-stat: AverageLbd=4.193939393939394
%%%mzn-stat-end
maxleg = 230;
succ = array1d(1..100,[81, 1, 48, 89, 16, 82, 72, 38, 100, 21, 95, 52, 78, 74, 54, 2, 79, 62, 83, 39, 12, 25, 59, 3, 86, 53, 44, 93, 49, 91, 55, 22, 6, 75, 14, 97, 17, 84, 57, 33, 68, 69, 67, 5, 35, 41, 98, 42, 34, 90, 92, 80, 61, 8, 64, 65, 10, 50, 24, 45, 36, 7, 88, 32, 99, 56, 4, 20, 40, 85, 13, 73, 37, 47, 19, 94, 15, 46, 71, 87, 28, 77, 76, 70, 96, 23, 11, 58, 63, 29, 18, 60, 51, 27, 31, 9, 43, 30, 26, 66]);
% time elapsed: 2.87 s
----------
==========
% time elapsed: 2.87 s
%%%mzn-stat: initTime=0.043132869
%%%mzn-stat: objective=230
%%%mzn-stat: nodes=1342
%%%mzn-stat: restarts=0
%%%mzn-stat: peakDepth=812
%%%mzn-stat: solveTime=0.606247895
%%%mzn-stat: variables=3259
%%%mzn-stat: propagators=2737
%%%mzn-stat: failures=330
%%%mzn-stat: propagations=411086
%%%mzn-stat: nogoods=330
%%%mzn-stat: AverageConflictSize=19.903030303030302
%%%mzn-stat: NumUnitNogoodsLearned=229
%%%mzn-stat: AverageLearnedNogoodLength=61.945454545454545
%%%mzn-stat: AverageBacktrackAmount=0
%%%mzn-stat: AverageLbd=4.193939393939394
%%%mzn-stat-end
